# Solution for model GasLib-40
# Objective value = 1.0309591911646269e+01
loadshed[innode_1] 0
loadshed[innode_2] 0
loadshed[innode_3] 0
loadshed[innode_4] 0
loadshed[innode_5] 0
loadshed[innode_6] 0
loadshed[innode_7] 0
loadshed[innode_8] 0
loadshed[source_1] -1.6081949290560393e-01
loadshed[source_2] 4.6172365928254244e-03
loadshed[source_3] 2.2141557655333088e-01
loadshed[sink_1] 0
loadshed[sink_2] 0
loadshed[sink_3] 0
loadshed[sink_4] 0
loadshed[sink_5] 0
loadshed[sink_6] 0
loadshed[sink_7] 0
loadshed[sink_8] 0
loadshed[sink_9] 0
loadshed[sink_10] 0
loadshed[sink_11] 0
loadshed[sink_12] 6.3039542899238332e-01
loadshed[sink_13] 0
loadshed[sink_14] 0
loadshed[sink_15] 0
loadshed[sink_16] 0
loadshed[sink_17] 0
loadshed[sink_18] 0
loadshed[sink_19] 0
loadshed[sink_20] 0
loadshed[sink_21] 0
loadshed[sink_22] 0
loadshed[sink_23] 0
loadshed[sink_24] 0
loadshed[sink_25] 0
loadshed[sink_26] 0
loadshed[sink_27] 0
loadshed[sink_28] 0
loadshed[sink_29] 0
flow[source_1,sink_3] 1.8351427608330607e+02
flow[innode_1,sink_16] 1.6354166666666970e+01
flow[innode_6,sink_13] -8.6074611094683036e+00
flow[sink_13,sink_14] -2.4961627776134971e+01
flow[sink_14,sink_10] -4.1315794442801639e+01
flow[sink_25,sink_26] 1.7657913538669197e+02
flow[sink_26,sink_9] 1.2421731820236897e+02
flow[sink_9,sink_18] 1.0786315153570230e+02
flow[sink_26,sink_4] 3.6007650517656337e+01
flow[sink_4,sink_20] -4.2069606034997037e+01
flow[sink_18,sink_6] 9.1508984869035629e+01
flow[sink_25,innode_8] -1.5080594274996969e+02
flow[sink_6,sink_7] 4.2446484869035430e+01
flow[sink_6,sink_22] 3.2708333333333641e+01
flow[sink_7,sink_24] 3.8752908088353735e+01
flow[sink_22,sink_1] 1.6354166666666970e+01
flow[sink_24,sink_21] 2.2398741421687067e+01
flow[sink_21,sink_12] 6.0445747550203981e+00
flow[sink_7,sink_5] -1.2660589885985104e+01
flow[sink_5,sink_17] -2.9014756552651761e+01
flow[sink_17,sink_4] -6.1723089885986838e+01
flow[sink_17,sink_8] 1.6354166666668334e+01
flow[sink_3,sink_23] 16.3541666666697
flow[sink_8,sink_20] 0
flow[sink_25,sink_20] 5.8423772701663978e+01
flow[sink_25,sink_15] -91.9436708955844
flow[sink_15,sink_29] -6.0649065620696405e+01
flow[sink_29,sink_28] 1.6354166666667879e+01
flow[sink_29,sink_2] 6.4002938608221328e+01
flow[sink_2,sink_15] 4.7648771941554656e+01
flow[sink_29,innode_7] -1.5736033756225228e+02
flow[innode_4,sink_19] 4.7875073905127735e+01
flow[sink_19,innode_3] 44.1042262015139
flow[innode_4,innode_5] 7.5211553871007141e+01
flow[sink_27,innode_5] -7.5211553871007141e+01
flow[sink_27,sink_19] 5.8857387204340476e+01
flow[sink_10,sink_11] 3.2708333333333641e+01
flow[sink_10,innode_2] -4.6274068241288042e+01
flow[sink_10,innode_3] -44.1042262015139
flow[innode_6,sink_25] 8.6074611094683036e+00
flow[sink_11,innode_1] 1.6354166666666970e+01
flow[sink_19,innode_2] 4.6274068241288042e+01
flow[source_3,innode_4] 1.2308662777613488e+02
flow[source_2,innode_7] 1.5736033756225228e+02
flow[sink_3,innode_8] 1.5080594274996969e+02
pressure[innode_1] 7.6476231837402892e+01
pressure[innode_2] 79.0737087697197
pressure[innode_3] 7.8976044955058271e+01
pressure[innode_4] 81.01325
pressure[innode_5] 8.0961515527330008e+01
pressure[innode_6] 7.4581631627447337e+01
pressure[innode_7] 81.01325
pressure[innode_8] 80.399831880048
pressure[source_1] 81.01325
pressure[source_2] 81.01325
pressure[source_3] 81.01325
pressure[sink_1] 4.6263089456366060e+01
pressure[sink_2] 7.5183210761980376e+01
pressure[sink_3] 80.399831880048
pressure[sink_4] 5.7567160942563490e+01
pressure[sink_5] 5.3046918334230277e+01
pressure[sink_6] 4.8364167066753431e+01
pressure[sink_7] 4.7781478006608218e+01
pressure[sink_8] 5.4591222777305092e+01
pressure[sink_9] 5.4710539730853114e+01
pressure[sink_10] 7.6627933145006438e+01
pressure[sink_11] 7.6476231837402892e+01
pressure[sink_12] 1.0132499999999998e+00
pressure[sink_13] 7.4629083122103452e+01
pressure[sink_14] 74.6737540812694
pressure[sink_15] 7.5027648023211384e+01
pressure[sink_16] 7.5454582002585212e+01
pressure[sink_17] 5.5208307972718714e+01
pressure[sink_18] 5.0807729420810176e+01
pressure[sink_19] 79.0737087697197
pressure[sink_20] 6.0653582854282895e+01
pressure[sink_21] 3.1642405187012188e+00
pressure[sink_22] 4.7326858598721067e+01
pressure[sink_23] 8.0235113868388211e+01
pressure[sink_24] 3.4122857690336641e+00
pressure[sink_25] 7.4581631627447337e+01
pressure[sink_26] 6.2145266821338105e+01
pressure[sink_27] 8.0337398606208936e+01
pressure[sink_28] 7.6509195155006722e+01
pressure[sink_29] 7.6804477428623912e+01
interdiction[source_1,sink_3] 0
interdiction[innode_1,sink_16] 0
interdiction[innode_6,sink_13] 0
interdiction[sink_13,sink_14] 0
interdiction[sink_14,sink_10] 0
interdiction[sink_25,sink_26] 0
interdiction[sink_26,sink_9] 0
interdiction[sink_9,sink_18] 0
interdiction[sink_26,sink_4] 0
interdiction[sink_4,sink_20] 0
interdiction[sink_18,sink_6] 0
interdiction[sink_25,innode_8] 0
interdiction[sink_6,sink_7] 0
interdiction[sink_6,sink_22] 0
interdiction[sink_7,sink_24] 0
interdiction[sink_22,sink_1] 0
interdiction[sink_24,sink_21] 0
interdiction[sink_21,sink_12] 0
interdiction[sink_7,sink_5] 0
interdiction[sink_5,sink_17] 0
interdiction[sink_17,sink_4] 0
interdiction[sink_17,sink_8] 0
interdiction[sink_3,sink_23] 0
interdiction[sink_8,sink_20] 1
interdiction[sink_25,sink_20] 0
interdiction[sink_25,sink_15] 0
interdiction[sink_15,sink_29] 0
interdiction[sink_29,sink_28] 0
interdiction[sink_29,sink_2] 0
interdiction[sink_2,sink_15] 0
interdiction[sink_29,innode_7] 0
interdiction[innode_4,sink_19] 0
interdiction[sink_19,innode_3] 0
interdiction[innode_4,innode_5] 0
interdiction[sink_27,innode_5] 0
interdiction[sink_27,sink_19] 0
interdiction[sink_10,sink_11] 0
interdiction[sink_10,innode_2] 0
interdiction[sink_10,innode_3] 0
interdiction[innode_6,sink_25] 0
interdiction[sink_11,innode_1] 0
interdiction[sink_19,innode_2] 0
interdiction[source_3,innode_4] 0
interdiction[source_2,innode_7] 0
interdiction[sink_3,innode_8] 0
WCcheckFlow[source_1,sink_3] 39
WCcheckFlow[innode_1,sink_16] 1
WCcheckFlow[innode_6,sink_13] 13
WCcheckFlow[sink_13,sink_14] 12
WCcheckFlow[sink_14,sink_10] 11
WCcheckFlow[sink_25,sink_26] 15
WCcheckFlow[sink_26,sink_9] 12
WCcheckFlow[sink_9,sink_18] 11
WCcheckFlow[sink_26,sink_4] 2
WCcheckFlow[sink_4,sink_20] 1
WCcheckFlow[sink_18,sink_6] 10
WCcheckFlow[sink_25,innode_8] -36
WCcheckFlow[sink_6,sink_7] 7
WCcheckFlow[sink_6,sink_22] 2
WCcheckFlow[sink_7,sink_24] 3
WCcheckFlow[sink_22,sink_1] 1
WCcheckFlow[sink_24,sink_21] 2
WCcheckFlow[sink_21,sink_12] 1
WCcheckFlow[sink_7,sink_5] 3
WCcheckFlow[sink_5,sink_17] 2
WCcheckFlow[sink_17,sink_4] 0
WCcheckFlow[sink_17,sink_8] 1
WCcheckFlow[sink_3,sink_23] 1
WCcheckFlow[sink_8,sink_20] 0
WCcheckFlow[sink_25,sink_20] 0
WCcheckFlow[sink_25,sink_15] 6
WCcheckFlow[sink_15,sink_29] 5
WCcheckFlow[sink_29,sink_28] 1
WCcheckFlow[sink_29,sink_2] 1
WCcheckFlow[sink_2,sink_15] 0
WCcheckFlow[sink_29,innode_7] 2
WCcheckFlow[innode_4,sink_19] -4
WCcheckFlow[sink_19,innode_3] -5
WCcheckFlow[innode_4,innode_5] 2
WCcheckFlow[sink_27,innode_5] -1
WCcheckFlow[sink_27,sink_19] 0
WCcheckFlow[sink_10,sink_11] 3
WCcheckFlow[sink_10,innode_2] 1
WCcheckFlow[sink_10,innode_3] 6
WCcheckFlow[innode_6,sink_25] -14
WCcheckFlow[sink_11,innode_1] 2
WCcheckFlow[sink_19,innode_2] 0
WCcheckFlow[source_3,innode_4] -1
WCcheckFlow[source_2,innode_7] -1
WCcheckFlow[sink_3,innode_8] 37
